
Gurobi 11.0.2 (win64) logging started Wed Aug 14 19:05:44 2024

Set parameter LogFile to value "D:\Documenti\Scuola\Laurea magistrale unibs\laurea-unibs-mkfsp\output\2024-08-14T16_44_40.946359\logs\instance03_bucket1.log"
Set parameter TimeLimit to value 500
Set parameter MIPGap to value 0
Gurobi Optimizer version 11.0.2 build v11.0.2rc0 (win64 - Windows 10.0 (19045.2))

CPU model: Intel(R) Core(TM) i5-4670 CPU @ 3.40GHz, instruction set [SSE2|AVX|AVX2]
Thread count: 4 physical cores, 4 logical processors, using up to 4 threads

Optimize a model with 1383 rows, 6676 columns and 71328 nonzeros
Model fingerprint: 0x8f4d27de
Variable types: 0 continuous, 6676 integer (6623 binary)
Coefficient statistics:
  Matrix range     [1e+00, 1e+03]
  Objective range  [6e+02, 8e+03]
  Bounds range     [1e+00, 1e+00]
  RHS range        [1e+00, 4e+04]
Found heuristic solution: objective -0.0000000
Presolve time: 0.09s
Presolved: 1383 rows, 6676 columns, 71328 nonzeros
Variable types: 0 continuous, 6676 integer (6623 binary)

Root relaxation: objective 2.914670e+05, 694 iterations, 0.01 seconds (0.01 work units)

    Nodes    |    Current Node    |     Objective Bounds      |     Work
 Expl Unexpl |  Obj  Depth IntInf | Incumbent    BestBd   Gap | It/Node Time

H    0     0                    291467.00000 291467.000  0.00%     -    0s
     0     0 291467.000    0  300 291467.000 291467.000  0.00%     -    0s

Explored 1 nodes (694 simplex iterations) in 0.11 seconds (0.09 work units)
Thread count was 4 (of 4 available processors)

Solution count 2: 291467 -0 

Optimal solution found (tolerance 0.00e+00)
Best objective 2.914670000000e+05, best bound 2.914670000000e+05, gap 0.0000%
